784 1568
1 2 2
1 29 1
2 3 4
2 30 4
3 4 2
3 31 2
4 5 1
4 32 5
5 6 5
5 33 1
6 7 2
6 34 1
7 8 4
7 35 5
8 9 1
8 36 2
9 10 5
9 37 2
10 11 2
10 38 4
11 12 5
11 39 3
12 13 1
12 40 5
13 14 4
13 41 4
14 15 5
14 42 2
15 16 4
15 43 2
16 17 5
16 44 2
17 18 2
17 45 3
18 19 1
18 46 5
19 20 3
19 47 1
20 21 2
20 48 3
21 22 3
21 49 2
22 23 1
22 50 5
23 24 1
23 51 5
24 25 4
24 52 4
25 26 5
25 53 3
26 27 4
26 54 5
27 28 5
27 55 1
28 56 5
29 30 3
29 57 1
30 31 5
30 58 5
31 32 4
31 59 4
32 33 5
32 60 1
33 34 2
33 61 1
34 35 2
34 62 2
35 36 1
35 63 4
36 37 1
36 64 4
37 38 2
37 65 1
38 39 2
38 66 2
39 40 4
39 67 4
40 41 4
40 68 5
41 42 3
41 69 1
42 43 3
42 70 2
43 44 4
43 71 4
44 45 5
44 72 1
45 46 3
45 73 5
46 47 5
46 74 1
47 48 5
47 75 1
48 49 1
48 76 2
49 50 2
49 77 2
50 51 2
50 78 1
51 52 5
51 79 2
52 53 2
52 80 4
53 54 3
53 81 4
54 55 1
54 82 5
55 56 1
55 83 1
56 84 1
57 58 4
57 85 3
58 59 2
58 86 4
59 60 5
59 87 2
60 61 3
60 88 2
61 62 5
61 89 5
62 63 1
62 90 2
63 64 1
63 91 3
64 65 3
64 92 4
65 66 3
65 93 1
66 67 4
66 94 5
67 68 1
67 95 4
68 69 4
68 96 4
69 70 3
69 97 1
70 71 3
70 98 4
71 72 5
71 99 4
72 73 1
72 100 3
73 74 5
73 101 1
74 75 4
74 102 1
75 76 1
75 103 3
76 77 4
76 104 2
77 78 5
77 105 3
78 79 4
78 106 2
79 80 1
79 107 2
80 81 2
80 108 2
81 82 2
81 109 1
82 83 3
82 110 4
83 84 3
83 111 5
84 112 2
85 86 3
85 113 4
86 87 2
86 114 5
87 88 5
87 115 3
88 89 2
88 116 1
89 90 2
89 117 5
90 91 1
90 118 2
91 92 1
91 119 5
92 93 5
92 120 2
93 94 2
93 121 3
94 95 3
94 122 3
95 96 2
95 123 1
96 97 5
96 124 2
97 98 5
97 125 3
98 99 5
98 126 1
99 100 1
99 127 3
100 101 2
100 128 5
101 102 5
101 129 4
102 103 4
102 130 1
103 104 5
103 131 4
104 105 2
104 132 5
105 106 2
105 133 1
106 107 5
106 134 5
107 108 4
107 135 5
108 109 3
108 136 4
109 110 2
109 137 5
110 111 2
110 138 2
111 112 3
111 139 1
112 140 2
113 114 5
113 141 1
114 115 2
114 142 1
115 116 2
115 143 5
116 117 2
116 144 3
117 118 3
117 145 1
118 119 3
118 146 3
119 120 2
119 147 4
120 121 5
120 148 2
121 122 1
121 149 1
122 123 5
122 150 5
123 124 2
123 151 4
124 125 5
124 152 1
125 126 2
125 153 4
126 127 4
126 154 2
127 128 1
127 155 1
128 129 5
128 156 2
129 130 4
129 157 3
130 131 5
130 158 5
131 132 3
131 159 5
132 133 1
132 160 4
133 134 4
133 161 1
134 135 1
134 162 5
135 136 2
135 163 4
136 137 5
136 164 4
137 138 4
137 165 2
138 139 4
138 166 2
139 140 1
139 167 1
140 168 5
141 142 3
141 169 2
142 143 2
142 170 1
143 144 2
143 171 1
144 145 4
144 172 1
145 146 2
145 173 4
146 147 3
146 174 1
147 148 2
147 175 2
148 149 2
148 176 1
149 150 4
149 177 3
150 151 5
150 178 5
151 152 1
151 179 1
152 153 4
152 180 2
153 154 3
153 181 4
154 155 1
154 182 1
155 156 4
155 183 2
156 157 4
156 184 1
157 158 5
157 185 2
158 159 4
158 186 4
159 160 1
159 187 4
160 161 5
160 188 1
161 162 3
161 189 2
162 163 5
162 190 4
163 164 4
163 191 3
164 165 3
164 192 4
165 166 2
165 193 3
166 167 2
166 194 2
167 168 1
167 195 2
168 196 2
169 170 3
169 197 1
170 171 3
170 198 1
171 172 1
171 199 4
172 173 2
172 200 2
173 174 1
173 201 1
174 175 3
174 202 5
175 176 2
175 203 5
176 177 3
176 204 3
177 178 5
177 205 3
178 179 3
178 206 1
179 180 1
179 207 4
180 181 5
180 208 4
181 182 5
181 209 1
182 183 1
182 210 1
183 184 3
183 211 4
184 185 2
184 212 1
185 186 2
185 213 3
186 187 1
186 214 3
187 188 1
187 215 4
188 189 3
188 216 4
189 190 5
189 217 1
190 191 1
190 218 5
191 192 2
191 219 3
192 193 1
192 220 2
193 194 5
193 221 4
194 195 1
194 222 4
195 196 5
195 223 3
196 224 3
197 198 4
197 225 5
198 199 2
198 226 5
199 200 4
199 227 1
200 201 4
200 228 3
201 202 4
201 229 3
202 203 4
202 230 5
203 204 2
203 231 3
204 205 2
204 232 4
205 206 4
205 233 2
206 207 1
206 234 2
207 208 5
207 235 1
208 209 4
208 236 4
209 210 4
209 237 2
210 211 2
210 238 5
211 212 5
211 239 1
212 213 4
212 240 4
213 214 1
213 241 2
214 215 1
214 242 5
215 216 1
215 243 1
216 217 3
216 244 2
217 218 4
217 245 2
218 219 4
218 246 3
219 220 5
219 247 1
220 221 3
220 248 1
221 222 3
221 249 5
222 223 3
222 250 1
223 224 4
223 251 5
224 252 3
225 226 3
225 253 3
226 227 4
226 254 1
227 228 4
227 255 2
228 229 3
228 256 3
229 230 1
229 257 2
230 231 5
230 258 2
231 232 2
231 259 1
232 233 1
232 260 3
233 234 2
233 261 3
234 235 2
234 262 5
235 236 5
235 263 1
236 237 1
236 264 3
237 238 3
237 265 2
238 239 1
238 266 2
239 240 3
239 267 2
240 241 5
240 268 3
241 242 2
241 269 3
242 243 3
242 270 5
243 244 4
243 271 3
244 245 2
244 272 5
245 246 3
245 273 3
246 247 1
246 274 4
247 248 3
247 275 2
248 249 2
248 276 2
249 250 1
249 277 5
250 251 4
250 278 3
251 252 5
251 279 2
252 280 3
253 254 5
253 281 3
254 255 3
254 282 3
255 256 1
255 283 2
256 257 4
256 284 5
257 258 5
257 285 3
258 259 1
258 286 1
259 260 3
259 287 3
260 261 1
260 288 3
261 262 2
261 289 3
262 263 3
262 290 5
263 264 5
263 291 2
264 265 1
264 292 4
265 266 2
265 293 1
266 267 2
266 294 4
267 268 1
267 295 3
268 269 2
268 296 4
269 270 4
269 297 1
270 271 5
270 298 1
271 272 4
271 299 3
272 273 3
272 300 3
273 274 3
273 301 4
274 275 3
274 302 2
275 276 4
275 303 2
276 277 1
276 304 4
277 278 2
277 305 5
278 279 3
278 306 2
279 280 4
279 307 4
280 308 1
281 282 5
281 309 1
282 283 3
282 310 1
283 284 2
283 311 5
284 285 1
284 312 4
285 286 1
285 313 4
286 287 2
286 314 4
287 288 1
287 315 3
288 289 2
288 316 2
289 290 5
289 317 4
290 291 4
290 318 5
291 292 3
291 319 5
292 293 4
292 320 4
293 294 4
293 321 2
294 295 1
294 322 2
295 296 5
295 323 4
296 297 4
296 324 2
297 298 3
297 325 1
298 299 4
298 326 5
299 300 5
299 327 4
300 301 3
300 328 4
301 302 2
301 329 2
302 303 5
302 330 3
303 304 2
303 331 4
304 305 3
304 332 2
305 306 2
305 333 2
306 307 1
306 334 4
307 308 4
307 335 1
308 336 3
309 310 5
309 337 4
310 311 4
310 338 3
311 312 3
311 339 4
312 313 5
312 340 2
313 314 4
313 341 1
314 315 2
314 342 4
315 316 3
315 343 3
316 317 3
316 344 1
317 318 3
317 345 3
318 319 3
318 346 5
319 320 5
319 347 1
320 321 3
320 348 5
321 322 4
321 349 5
322 323 5
322 350 2
323 324 3
323 351 5
324 325 1
324 352 3
325 326 2
325 353 1
326 327 3
326 354 3
327 328 1
327 355 4
328 329 1
328 356 5
329 330 5
329 357 3
330 331 2
330 358 1
331 332 1
331 359 2
332 333 1
332 360 3
333 334 2
333 361 3
334 335 2
334 362 1
335 336 5
335 363 1
336 364 4
337 338 5
337 365 5
338 339 3
338 366 5
339 340 5
339 367 2
340 341 3
340 368 2
341 342 5
341 369 4
342 343 4
342 370 4
343 344 5
343 371 2
344 345 3
344 372 4
345 346 2
345 373 3
346 347 5
346 374 2
347 348 5
347 375 2
348 349 2
348 376 2
349 350 1
349 377 5
350 351 4
350 378 4
351 352 2
351 379 3
352 353 2
352 380 4
353 354 2
353 381 5
354 355 4
354 382 3
355 356 2
355 383 3
356 357 2
356 384 3
357 358 5
357 385 2
358 359 3
358 386 2
359 360 3
359 387 1
360 361 3
360 388 1
361 362 4
361 389 2
362 363 2
362 390 4
363 364 1
363 391 1
364 392 3
365 366 1
365 393 5
366 367 3
366 394 3
367 368 1
367 395 3
368 369 5
368 396 2
369 370 2
369 397 2
370 371 1
370 398 5
371 372 4
371 399 5
372 373 5
372 400 5
373 374 2
373 401 3
374 375 5
374 402 5
375 376 4
375 403 2
376 377 2
376 404 4
377 378 4
377 405 3
378 379 3
378 406 1
379 380 1
379 407 5
380 381 4
380 408 3
381 382 4
381 409 3
382 383 2
382 410 2
383 384 5
383 411 5
384 385 5
384 412 2
385 386 2
385 413 5
386 387 3
386 414 3
387 388 1
387 415 2
388 389 4
388 416 1
389 390 2
389 417 2
390 391 5
390 418 1
391 392 1
391 419 1
392 420 5
393 394 2
393 421 3
394 395 2
394 422 2
395 396 3
395 423 2
396 397 5
396 424 3
397 398 3
397 425 1
398 399 3
398 426 5
399 400 5
399 427 4
400 401 4
400 428 1
401 402 2
401 429 2
402 403 2
402 430 5
403 404 4
403 431 5
404 405 5
404 432 4
405 406 4
405 433 1
406 407 2
406 434 4
407 408 3
407 435 1
408 409 1
408 436 2
409 410 4
409 437 3
410 411 5
410 438 3
411 412 5
411 439 5
412 413 5
412 440 1
413 414 3
413 441 2
414 415 2
414 442 2
415 416 4
415 443 1
416 417 1
416 444 3
417 418 1
417 445 1
418 419 3
418 446 2
419 420 1
419 447 4
420 448 3
421 422 1
421 449 2
422 423 5
422 450 4
423 424 3
423 451 5
424 425 1
424 452 3
425 426 2
425 453 4
426 427 2
426 454 5
427 428 3
427 455 5
428 429 5
428 456 3
429 430 3
429 457 2
430 431 5
430 458 5
431 432 1
431 459 2
432 433 2
432 460 1
433 434 5
433 461 1
434 435 3
434 462 1
435 436 3
435 463 3
436 437 2
436 464 1
437 438 4
437 465 1
438 439 2
438 466 3
439 440 4
439 467 2
440 441 1
440 468 4
441 442 2
441 469 2
442 443 1
442 470 2
443 444 3
443 471 2
444 445 5
444 472 1
445 446 3
445 473 3
446 447 2
446 474 1
447 448 1
447 475 2
448 476 3
449 450 5
449 477 1
450 451 3
450 478 5
451 452 5
451 479 3
452 453 3
452 480 5
453 454 2
453 481 4
454 455 4
454 482 4
455 456 5
455 483 3
456 457 3
456 484 5
457 458 1
457 485 3
458 459 2
458 486 2
459 460 1
459 487 2
460 461 2
460 488 3
461 462 4
461 489 5
462 463 3
462 490 2
463 464 2
463 491 2
464 465 2
464 492 5
465 466 5
465 493 5
466 467 4
466 494 5
467 468 3
467 495 1
468 469 5
468 496 5
469 470 4
469 497 4
470 471 2
470 498 5
471 472 4
471 499 1
472 473 4
472 500 5
473 474 5
473 501 2
474 475 3
474 502 3
475 476 4
475 503 2
476 504 3
477 478 2
477 505 3
478 479 4
478 506 3
479 480 3
479 507 1
480 481 3
480 508 2
481 482 2
481 509 3
482 483 1
482 510 2
483 484 3
483 511 4
484 485 4
484 512 5
485 486 1
485 513 2
486 487 2
486 514 3
487 488 5
487 515 1
488 489 1
488 516 3
489 490 2
489 517 1
490 491 4
490 518 2
491 492 5
491 519 1
492 493 3
492 520 1
493 494 2
493 521 4
494 495 3
494 522 4
495 496 1
495 523 2
496 497 1
496 524 2
497 498 5
497 525 5
498 499 1
498 526 5
499 500 4
499 527 1
500 501 2
500 528 3
501 502 4
501 529 4
502 503 1
502 530 3
503 504 4
503 531 2
504 532 4
505 506 5
505 533 5
506 507 4
506 534 4
507 508 1
507 535 4
508 509 3
508 536 2
509 510 2
509 537 5
510 511 1
510 538 1
511 512 3
511 539 5
512 513 5
512 540 4
513 514 5
513 541 1
514 515 5
514 542 3
515 516 3
515 543 2
516 517 5
516 544 1
517 518 1
517 545 2
518 519 5
518 546 1
519 520 5
519 547 5
520 521 4
520 548 5
521 522 3
521 549 4
522 523 3
522 550 4
523 524 2
523 551 4
524 525 3
524 552 5
525 526 4
525 553 4
526 527 1
526 554 4
527 528 2
527 555 2
528 529 2
528 556 5
529 530 2
529 557 4
530 531 3
530 558 2
531 532 5
531 559 1
532 560 5
533 534 3
533 561 5
534 535 5
534 562 4
535 536 4
535 563 4
536 537 3
536 564 3
537 538 2
537 565 1
538 539 5
538 566 1
539 540 2
539 567 3
540 541 5
540 568 4
541 542 2
541 569 5
542 543 4
542 570 3
543 544 4
543 571 3
544 545 4
544 572 4
545 546 2
545 573 4
546 547 3
546 574 3
547 548 4
547 575 3
548 549 1
548 576 1
549 550 4
549 577 4
550 551 5
550 578 2
551 552 1
551 579 5
552 553 5
552 580 1
553 554 5
553 581 2
554 555 1
554 582 3
555 556 5
555 583 3
556 557 4
556 584 4
557 558 2
557 585 3
558 559 3
558 586 1
559 560 2
559 587 5
560 588 5
561 562 2
561 589 4
562 563 3
562 590 3
563 564 5
563 591 4
564 565 5
564 592 5
565 566 3
565 593 5
566 567 4
566 594 2
567 568 3
567 595 1
568 569 4
568 596 4
569 570 5
569 597 3
570 571 4
570 598 2
571 572 2
571 599 3
572 573 4
572 600 2
573 574 2
573 601 1
574 575 4
574 602 3
575 576 5
575 603 4
576 577 2
576 604 4
577 578 1
577 605 1
578 579 2
578 606 4
579 580 5
579 607 5
580 581 4
580 608 2
581 582 1
581 609 1
582 583 5
582 610 4
583 584 2
583 611 3
584 585 2
584 612 1
585 586 3
585 613 5
586 587 4
586 614 1
587 588 2
587 615 4
588 616 3
589 590 5
589 617 2
590 591 5
590 618 1
591 592 4
591 619 2
592 593 1
592 620 3
593 594 3
593 621 4
594 595 1
594 622 4
595 596 5
595 623 5
596 597 5
596 624 2
597 598 5
597 625 4
598 599 4
598 626 3
599 600 2
599 627 4
600 601 1
600 628 5
601 602 5
601 629 5
602 603 2
602 630 3
603 604 1
603 631 1
604 605 5
604 632 1
605 606 2
605 633 3
606 607 4
606 634 2
607 608 5
607 635 4
608 609 4
608 636 1
609 610 4
609 637 4
610 611 4
610 638 2
611 612 1
611 639 1
612 613 1
612 640 5
613 614 5
613 641 2
614 615 4
614 642 1
615 616 5
615 643 3
616 644 5
617 618 3
617 645 5
618 619 3
618 646 4
619 620 5
619 647 3
620 621 1
620 648 2
621 622 4
621 649 5
622 623 1
622 650 5
623 624 2
623 651 4
624 625 4
624 652 2
625 626 2
625 653 4
626 627 5
626 654 1
627 628 1
627 655 4
628 629 1
628 656 2
629 630 4
629 657 3
630 631 3
630 658 4
631 632 3
631 659 1
632 633 3
632 660 5
633 634 3
633 661 3
634 635 2
634 662 4
635 636 5
635 663 1
636 637 5
636 664 3
637 638 5
637 665 4
638 639 1
638 666 1
639 640 3
639 667 1
640 641 2
640 668 5
641 642 2
641 669 2
642 643 4
642 670 1
643 644 2
643 671 4
644 672 1
645 646 4
645 673 3
646 647 2
646 674 5
647 648 4
647 675 2
648 649 4
648 676 1
649 650 1
649 677 2
650 651 4
650 678 4
651 652 1
651 679 4
652 653 5
652 680 4
653 654 5
653 681 2
654 655 5
654 682 2
655 656 2
655 683 2
656 657 2
656 684 2
657 658 3
657 685 4
658 659 3
658 686 2
659 660 4
659 687 1
660 661 2
660 688 5
661 662 2
661 689 3
662 663 2
662 690 4
663 664 3
663 691 2
664 665 3
664 692 2
665 666 2
665 693 5
666 667 2
666 694 1
667 668 5
667 695 2
668 669 2
668 696 2
669 670 3
669 697 3
670 671 5
670 698 4
671 672 2
671 699 4
672 700 1
673 674 4
673 701 1
674 675 1
674 702 3
675 676 3
675 703 2
676 677 1
676 704 4
677 678 2
677 705 5
678 679 4
678 706 4
679 680 5
679 707 3
680 681 3
680 708 5
681 682 4
681 709 5
682 683 2
682 710 5
683 684 3
683 711 4
684 685 4
684 712 1
685 686 4
685 713 3
686 687 2
686 714 1
687 688 2
687 715 2
688 689 5
688 716 1
689 690 1
689 717 1
690 691 3
690 718 2
691 692 5
691 719 1
692 693 3
692 720 3
693 694 1
693 721 5
694 695 5
694 722 4
695 696 3
695 723 1
696 697 3
696 724 2
697 698 1
697 725 4
698 699 2
698 726 5
699 700 1
699 727 1
700 728 1
701 702 3
701 729 2
702 703 2
702 730 4
703 704 4
703 731 5
704 705 1
704 732 1
705 706 3
705 733 1
706 707 2
706 734 1
707 708 5
707 735 4
708 709 3
708 736 3
709 710 2
709 737 3
710 711 2
710 738 1
711 712 2
711 739 4
712 713 1
712 740 4
713 714 3
713 741 3
714 715 1
714 742 1
715 716 3
715 743 3
716 717 4
716 744 4
717 718 3
717 745 5
718 719 1
718 746 3
719 720 3
719 747 4
720 721 4
720 748 5
721 722 2
721 749 2
722 723 3
722 750 1
723 724 3
723 751 3
724 725 4
724 752 4
725 726 4
725 753 5
726 727 3
726 754 4
727 728 3
727 755 3
728 756 1
729 730 2
729 757 2
730 731 5
730 758 5
731 732 4
731 759 5
732 733 4
732 760 2
733 734 4
733 761 4
734 735 5
734 762 3
735 736 5
735 763 1
736 737 5
736 764 2
737 738 3
737 765 3
738 739 2
738 766 2
739 740 1
739 767 3
740 741 5
740 768 1
741 742 1
741 769 1
742 743 3
742 770 2
743 744 1
743 771 3
744 745 2
744 772 5
745 746 3
745 773 2
746 747 2
746 774 5
747 748 3
747 775 1
748 749 3
748 776 1
749 750 3
749 777 3
750 751 2
750 778 2
751 752 4
751 779 3
752 753 1
752 780 3
753 754 2
753 781 3
754 755 1
754 782 5
755 756 5
755 783 3
756 784 2
757 758 1
758 759 4
759 760 1
760 761 4
761 762 4
762 763 1
763 764 5
764 765 1
765 766 4
766 767 5
767 768 1
768 769 1
769 770 5
770 771 5
771 772 5
772 773 2
773 774 4
774 775 3
775 776 1
776 777 2
777 778 4
778 779 1
779 780 2
780 781 3
781 782 1
782 783 4
783 784 4
1 757 2
2 758 3
3 759 4
4 760 3
5 761 1
6 762 1
7 763 5
8 764 1
9 765 3
10 766 4
11 767 3
12 768 5
13 769 4
14 770 4
15 771 3
16 772 2
17 773 2
18 774 2
19 775 1
20 776 1
21 777 1
22 778 4
23 779 1
24 780 1
25 781 1
26 782 2
27 783 1
28 784 2
1 28 4
29 56 3
57 84 2
85 112 1
113 140 5
141 168 2
169 196 3
197 224 3
225 252 1
253 280 4
281 308 5
309 336 5
337 364 3
365 392 1
393 420 5
421 448 1
449 476 4
477 504 1
505 532 3
533 560 3
561 588 1
589 616 5
617 644 2
645 672 5
673 700 3
701 728 1
729 756 1
757 784 3
